lab5/part1/adder/adder/model/design_smt2.smt2
; SMT-LIBv2 description generated by Yosys 0.25+1 (git sha1 d3216593d, clang 10.0.0-4ubuntu1 -fPIC -Os)
; yosys-smt2-module adder
(declare-sort |adder_s| 0)
(declare-fun |adder_is| (|adder_s|) Bool)
(declare-fun |adder#0| (|adder_s|) (_ BitVec 4)) ; \a_i
(declare-fun |adder#1| (|adder_s|) (_ BitVec 4)) ; \b_i
(define-fun |adder#2| ((state |adder_s|)) (_ BitVec 5) (bvadd (concat #b0 (|adder#0| state)) (concat #b0 (|adder#1| state)))) ; $add$adder.sv:30$7_Y
(declare-fun |adder#3| (|adder_s|) (_ BitVec 4)) ; \c_i
(define-fun |adder#4| ((state |adder_s|)) (_ BitVec 5) (bvadd (|adder#2| state) (concat #b0 (|adder#3| state)))) ; \sum_o
; yosys-smt2-output sum_o 5
; yosys-smt2-wire sum_o 5
(define-fun |adder_n sum_o| ((state |adder_s|)) (_ BitVec 5) (|adder#4| state))
; yosys-smt2-input c_i 4
; yosys-smt2-wire c_i 4
; yosys-smt2-witness {"offset": 0, "path": ["\\c_i"], "smtname": "c_i", "smtoffset": 0, "type": "input", "width": 4}
(define-fun |adder_n c_i| ((state |adder_s|)) (_ BitVec 4) (|adder#3| state))
; yosys-smt2-input b_i 4
; yosys-smt2-wire b_i 4
; yosys-smt2-witness {"offset": 0, "path": ["\\b_i"], "smtname": "b_i", "smtoffset": 0, "type": "input", "width": 4}
(define-fun |adder_n b_i| ((state |adder_s|)) (_ BitVec 4) (|adder#1| state))
; yosys-smt2-input a_i 4
; yosys-smt2-wire a_i 4
; yosys-smt2-witness {"offset": 0, "path": ["\\a_i"], "smtname": "a_i", "smtoffset": 0, "type": "input", "width": 4}
(define-fun |adder_n a_i| ((state |adder_s|)) (_ BitVec 4) (|adder#0| state))
(define-fun |adder#5| ((state |adder_s|)) (_ BitVec 5) (bvsub (concat #b0 (|adder#0| state)) (concat #b0 (|adder#1| state)))) ; $sub$adder.sv:29$3_Y
(define-fun |adder#6| ((state |adder_s|)) (_ BitVec 5) (bvadd (|adder#5| state) (concat #b0 (|adder#3| state)))) ; $add$adder.sv:29$4_Y
(define-fun |adder#7| ((state |adder_s|)) Bool (= (|adder#4| state) (|adder#6| state))) ; $eq$adder.sv:29$5_Y
; yosys-smt2-assert 0 $assert$adder.sv:8$6 adder.sv:8.36-29.52
(define-fun |adder_a 0| ((state |adder_s|)) Bool (or (|adder#7| state) (not true))) ; $assert$adder.sv:8$6
; yosys-smt2-assert 1 $assert$adder.sv:29$10 adder.sv:29.53-30.50
(define-fun |adder_a 1| ((state |adder_s|)) Bool (or true (not true))) ; $assert$adder.sv:29$10
(define-fun |adder_a| ((state |adder_s|)) Bool (and
  (|adder_a 0| state)
  (|adder_a 1| state)
))
(define-fun |adder_u| ((state |adder_s|)) Bool true)
(define-fun |adder_i| ((state |adder_s|)) Bool true)
(define-fun |adder_h| ((state |adder_s|)) Bool true)
(define-fun |adder_t| ((state |adder_s|) (next_state |adder_s|)) Bool true) ; end of module adder
; yosys-smt2-topmod adder
; end of yosys output
